NAME          DCAP_2_4_3_200_SS197
ROWS
 N  OBJ
 L  CON1
 L  CON2
 L  CON3
 L  CON4
 L  CON5
 L  CON6
 L  CON7
 L  CON8
 L  CON9
 L  CON10
 L  CON11
 L  CON12
 E  CON13
 E  CON14
 E  CON15
 E  CON16
 E  CON17
 E  CON18
 E  CON19
 E  CON20
 E  CON21
 E  CON22
 E  CON23
 E  CON24
COLUMNS
    x[1,1]    OBJ       6.180167      CON1      1.000000    
    x[1,1]    CON7      -1.000000     CON8      -1.000000   
    x[1,1]    CON9      -1.000000   
    x[1,2]    OBJ       6.563535      CON2      1.000000    
    x[1,2]    CON8      -1.000000     CON9      -1.000000   
    x[1,3]    OBJ       7.443064      CON3      1.000000    
    x[1,3]    CON9      -1.000000   
    x[2,1]    OBJ       6.732585      CON4      1.000000    
    x[2,1]    CON10     -1.000000     CON11     -1.000000   
    x[2,1]    CON12     -1.000000   
    x[2,2]    OBJ       5.039546      CON5      1.000000    
    x[2,2]    CON11     -1.000000     CON12     -1.000000   
    x[2,3]    OBJ       6.054841      CON6      1.000000    
    x[2,3]    CON12     -1.000000   
    MARKER    'MARKER'                'INTORG'
    u[1,1]    OBJ       48.076654     CON1      -1.000000   
    u[1,2]    OBJ       20.066487     CON2      -1.000000   
    u[1,3]    OBJ       32.230043     CON3      -1.000000   
    u[2,1]    OBJ       49.996186     CON4      -1.000000   
    u[2,2]    OBJ       49.466655     CON5      -1.000000   
    u[2,3]    OBJ       27.484319     CON6      -1.000000   
    y[1,1,1]  OBJ       9.125146      CON7      0.770884    
    y[1,1,1]  CON13     1.000000    
    y[1,1,2]  OBJ       9.778808      CON8      0.705035    
    y[1,1,2]  CON14     1.000000    
    y[1,1,3]  OBJ       9.888375      CON9      0.924740    
    y[1,1,3]  CON15     1.000000    
    y[1,2,1]  OBJ       8.729943      CON7      0.856823    
    y[1,2,1]  CON16     1.000000    
    y[1,2,2]  OBJ       5.740198      CON8      1.072972    
    y[1,2,2]  CON17     1.000000    
    y[1,2,3]  OBJ       6.320844      CON9      0.788739    
    y[1,2,3]  CON18     1.000000    
    y[1,3,1]  OBJ       6.609145      CON7      1.357471    
    y[1,3,1]  CON19     1.000000    
    y[1,3,2]  OBJ       7.559956      CON8      1.430982    
    y[1,3,2]  CON20     1.000000    
    y[1,3,3]  OBJ       6.951458      CON9      1.121408    
    y[1,3,3]  CON21     1.000000    
    y[1,4,1]  OBJ       9.504631      CON7      0.752653    
    y[1,4,1]  CON22     1.000000    
    y[1,4,2]  OBJ       9.100152      CON8      0.586266    
    y[1,4,2]  CON23     1.000000    
    y[1,4,3]  OBJ       8.432966      CON9      1.420589    
    y[1,4,3]  CON24     1.000000    
    y[2,1,1]  OBJ       8.921442      CON10     0.770884    
    y[2,1,1]  CON13     1.000000    
    y[2,1,2]  OBJ       6.380980      CON11     0.705035    
    y[2,1,2]  CON14     1.000000    
    y[2,1,3]  OBJ       5.635777      CON12     0.924740    
    y[2,1,3]  CON15     1.000000    
    y[2,2,1]  OBJ       7.451522      CON10     0.856823    
    y[2,2,1]  CON16     1.000000    
    y[2,2,2]  OBJ       7.520366      CON11     1.072972    
    y[2,2,2]  CON17     1.000000    
    y[2,2,3]  OBJ       6.453266      CON12     0.788739    
    y[2,2,3]  CON18     1.000000    
    y[2,3,1]  OBJ       7.073091      CON10     1.357471    
    y[2,3,1]  CON19     1.000000    
    y[2,3,2]  OBJ       5.517691      CON11     1.430982    
    y[2,3,2]  CON20     1.000000    
    y[2,3,3]  OBJ       5.659178      CON12     1.121408    
    y[2,3,3]  CON21     1.000000    
    y[2,4,1]  OBJ       6.629648      CON10     0.752653    
    y[2,4,1]  CON22     1.000000    
    y[2,4,2]  OBJ       6.467939      CON11     0.586266    
    y[2,4,2]  CON23     1.000000    
    y[2,4,3]  OBJ       6.404807      CON12     1.420589    
    y[2,4,3]  CON24     1.000000    
    z[1,1]    OBJ       576.691212    CON13     1.000000    
    z[1,2]    OBJ       534.253503    CON14     1.000000    
    z[1,3]    OBJ       966.314550    CON15     1.000000    
    z[2,1]    OBJ       914.474031    CON16     1.000000    
    z[2,2]    OBJ       895.518155    CON17     1.000000    
    z[2,3]    OBJ       995.988465    CON18     1.000000    
    z[3,1]    OBJ       700.493228    CON19     1.000000    
    z[3,2]    OBJ       505.681617    CON20     1.000000    
    z[3,3]    OBJ       943.821272    CON21     1.000000    
    z[4,1]    OBJ       626.214405    CON22     1.000000    
    z[4,2]    OBJ       756.511866    CON23     1.000000    
    z[4,3]    OBJ       841.348570    CON24     1.000000    
    MARKER    'MARKER'                 'INTEND'
RHS
    RHS       CON1      -0.000000     CON2      -0.000000   
    RHS       CON3      -0.000000     CON4      -0.000000   
    RHS       CON5      -0.000000     CON6      -0.000000   
    RHS       CON7      -0.000000     CON8      -0.000000   
    RHS       CON9      -0.000000     CON10     -0.000000   
    RHS       CON11     -0.000000     CON12     -0.000000   
    RHS       CON13     1.000000      CON14     1.000000    
    RHS       CON15     1.000000      CON16     1.000000    
    RHS       CON17     1.000000      CON18     1.000000    
    RHS       CON19     1.000000      CON20     1.000000    
    RHS       CON21     1.000000      CON22     1.000000    
    RHS       CON23     1.000000      CON24     1.000000    
BOUNDS
 BV BOUND     u[1,1]  
 BV BOUND     u[1,2]  
 BV BOUND     u[1,3]  
 BV BOUND     u[2,1]  
 BV BOUND     u[2,2]  
 BV BOUND     u[2,3]  
 BV BOUND     y[1,1,1]
 BV BOUND     y[1,1,2]
 BV BOUND     y[1,1,3]
 BV BOUND     y[1,2,1]
 BV BOUND     y[1,2,2]
 BV BOUND     y[1,2,3]
 BV BOUND     y[1,3,1]
 BV BOUND     y[1,3,2]
 BV BOUND     y[1,3,3]
 BV BOUND     y[1,4,1]
 BV BOUND     y[1,4,2]
 BV BOUND     y[1,4,3]
 BV BOUND     y[2,1,1]
 BV BOUND     y[2,1,2]
 BV BOUND     y[2,1,3]
 BV BOUND     y[2,2,1]
 BV BOUND     y[2,2,2]
 BV BOUND     y[2,2,3]
 BV BOUND     y[2,3,1]
 BV BOUND     y[2,3,2]
 BV BOUND     y[2,3,3]
 BV BOUND     y[2,4,1]
 BV BOUND     y[2,4,2]
 BV BOUND     y[2,4,3]
 BV BOUND     z[1,1]  
 BV BOUND     z[1,2]  
 BV BOUND     z[1,3]  
 BV BOUND     z[2,1]  
 BV BOUND     z[2,2]  
 BV BOUND     z[2,3]  
 BV BOUND     z[3,1]  
 BV BOUND     z[3,2]  
 BV BOUND     z[3,3]  
 BV BOUND     z[4,1]  
 BV BOUND     z[4,2]  
 BV BOUND     z[4,3]  
ENDATA
